[VALIDATOR STDOUT]
Checking plan: /home/jfan5/Safety-gen/runs/benchmark/optic/delivery_20260201_172908/delivery/optic_results/delivery_size5_packages1_seed5001.plan
Plan executed successfully - checking goal
Plan valid
Final value: 13 

Successful plans:
Value: 13
 /home/jfan5/Safety-gen/runs/benchmark/optic/delivery_20260201_172908/delivery/optic_results/delivery_size5_packages1_seed5001.plan 13
